p cnf 12 15
-1 -8 10 -11 5 3 -9 0
-11 9 12 -8 0
6 -1 -3 0
6 -10 0
-5 -9 -6 1 0
-8 10 5 11 7 -9 -6 0
10 -5 7 -9 -3 -11 0
-10 -3 -6 9 0
-1 9 -11 0
3 -5 4 -11 -2 12 -8 -1 6 -7 9 10 0
6 5 8 0
5 -2 -7 -4 0
3 -10 8 1 0
-9 -12 -7 -2 0
1 -10 -5 0
